
Gurobi 12.0.2 (linux64) logging started Mo 07 Jul 2025 13:03:11 CEST

Set parameter LogFile to value "linear_model.log"
Gurobi Optimizer version 12.0.2 build v12.0.2rc0 (linux64 - "Ubuntu 22.04.5 LTS")

CPU model: Intel(R) Core(TM) i7-10510U CPU @ 1.80GHz, instruction set [SSE2|AVX|AVX2]
Thread count: 4 physical cores, 8 logical processors, using up to 4 threads

Non-default parameters:
TimeLimit  300
MIPGap  0
Method  2
Threads  4

Academic license 2623289 - for non-commercial use only - registered to ue___@student.kit.edu
Optimize a model with 789 rows, 4335 columns and 41162 nonzeros
Model fingerprint: 0xa9476d6b
Variable types: 0 continuous, 4335 integer (4335 binary)
Coefficient statistics:
  Matrix range     [1e+00, 2e+02]
  Objective range  [6e+01, 2e+02]
  Bounds range     [1e+00, 1e+00]
  RHS range        [1e+00, 2e+01]
Presolved: 209 rows, 525 columns, 3774 nonzeros

Continuing optimization...


Explored 1 nodes (43 simplex iterations) in 0.00 seconds (0.00 work units)
Thread count was 8 (of 8 available processors)

Solution count 2: 57 62 

Optimal solution found (tolerance 0.00e+00)
Best objective 5.700000000000e+01, best bound 5.700000000000e+01, gap 0.0000%

Gurobi 12.0.2 (linux64) logging started Mo 07 Jul 2025 13:22:03 CEST

Set parameter LogFile to value "linear_model.log"
Gurobi Optimizer version 12.0.2 build v12.0.2rc0 (linux64 - "Ubuntu 22.04.5 LTS")

CPU model: Intel(R) Core(TM) i7-10510U CPU @ 1.80GHz, instruction set [SSE2|AVX|AVX2]
Thread count: 4 physical cores, 8 logical processors, using up to 4 threads

Non-default parameters:
TimeLimit  300
MIPGap  0
Method  2
Threads  4

Academic license 2623289 - for non-commercial use only - registered to ue___@student.kit.edu
Optimize a model with 789 rows, 4335 columns and 41162 nonzeros
Model fingerprint: 0xa9476d6b
Variable types: 0 continuous, 4335 integer (4335 binary)
Coefficient statistics:
  Matrix range     [1e+00, 2e+02]
  Objective range  [6e+01, 2e+02]
  Bounds range     [1e+00, 1e+00]
  RHS range        [1e+00, 2e+01]
Presolved: 209 rows, 525 columns, 3774 nonzeros

Continuing optimization...


Explored 1 nodes (43 simplex iterations) in 0.00 seconds (0.00 work units)
Thread count was 8 (of 8 available processors)

Solution count 2: 57 62 

Optimal solution found (tolerance 0.00e+00)
Best objective 5.700000000000e+01, best bound 5.700000000000e+01, gap 0.0000%

Gurobi 12.0.2 (linux64) logging started Mo 07 Jul 2025 13:22:18 CEST

Set parameter LogFile to value "linear_model.log"
Gurobi Optimizer version 12.0.2 build v12.0.2rc0 (linux64 - "Ubuntu 22.04.5 LTS")

CPU model: Intel(R) Core(TM) i7-10510U CPU @ 1.80GHz, instruction set [SSE2|AVX|AVX2]
Thread count: 4 physical cores, 8 logical processors, using up to 4 threads

Non-default parameters:
TimeLimit  300
MIPGap  0
Method  2
Threads  4

Academic license 2623289 - for non-commercial use only - registered to ue___@student.kit.edu
Optimize a model with 789 rows, 4335 columns and 41162 nonzeros
Model fingerprint: 0xa9476d6b
Variable types: 0 continuous, 4335 integer (4335 binary)
Coefficient statistics:
  Matrix range     [1e+00, 2e+02]
  Objective range  [6e+01, 2e+02]
  Bounds range     [1e+00, 1e+00]
  RHS range        [1e+00, 2e+01]
Presolved: 209 rows, 525 columns, 3774 nonzeros

Continuing optimization...


Explored 1 nodes (43 simplex iterations) in 0.00 seconds (0.00 work units)
Thread count was 8 (of 8 available processors)

Solution count 2: 57 62 

Optimal solution found (tolerance 0.00e+00)
Best objective 5.700000000000e+01, best bound 5.700000000000e+01, gap 0.0000%

Gurobi 12.0.2 (linux64) logging started Mo 07 Jul 2025 13:23:30 CEST

Set parameter LogFile to value "linear_model.log"
Gurobi Optimizer version 12.0.2 build v12.0.2rc0 (linux64 - "Ubuntu 22.04.5 LTS")

CPU model: Intel(R) Core(TM) i7-10510U CPU @ 1.80GHz, instruction set [SSE2|AVX|AVX2]
Thread count: 4 physical cores, 8 logical processors, using up to 4 threads

Non-default parameters:
TimeLimit  300
MIPGap  0
Method  2
Threads  4

Academic license 2623289 - for non-commercial use only - registered to ue___@student.kit.edu
Optimize a model with 789 rows, 4335 columns and 41162 nonzeros
Model fingerprint: 0xa9476d6b
Variable types: 0 continuous, 4335 integer (4335 binary)
Coefficient statistics:
  Matrix range     [1e+00, 2e+02]
  Objective range  [6e+01, 2e+02]
  Bounds range     [1e+00, 1e+00]
  RHS range        [1e+00, 2e+01]
Presolved: 209 rows, 525 columns, 3774 nonzeros

Continuing optimization...


Explored 1 nodes (43 simplex iterations) in 0.00 seconds (0.00 work units)
Thread count was 8 (of 8 available processors)

Solution count 2: 57 62 

Optimal solution found (tolerance 0.00e+00)
Best objective 5.700000000000e+01, best bound 5.700000000000e+01, gap 0.0000%

Gurobi 12.0.2 (linux64) logging started Mo 07 Jul 2025 13:30:02 CEST

Set parameter LogFile to value "linear_model.log"
Gurobi Optimizer version 12.0.2 build v12.0.2rc0 (linux64 - "Ubuntu 22.04.5 LTS")

CPU model: Intel(R) Core(TM) i7-10510U CPU @ 1.80GHz, instruction set [SSE2|AVX|AVX2]
Thread count: 4 physical cores, 8 logical processors, using up to 4 threads

Non-default parameters:
TimeLimit  300
MIPGap  0
Method  2
Threads  4

Academic license 2623289 - for non-commercial use only - registered to ue___@student.kit.edu
Optimize a model with 789 rows, 4335 columns and 41162 nonzeros
Model fingerprint: 0xa9476d6b
Variable types: 0 continuous, 4335 integer (4335 binary)
Coefficient statistics:
  Matrix range     [1e+00, 2e+02]
  Objective range  [6e+01, 2e+02]
  Bounds range     [1e+00, 1e+00]
  RHS range        [1e+00, 2e+01]
Presolved: 209 rows, 525 columns, 3774 nonzeros

Continuing optimization...


Explored 1 nodes (43 simplex iterations) in 0.00 seconds (0.00 work units)
Thread count was 8 (of 8 available processors)

Solution count 2: 57 62 

Optimal solution found (tolerance 0.00e+00)
Best objective 5.700000000000e+01, best bound 5.700000000000e+01, gap 0.0000%

Gurobi 12.0.2 (linux64) logging started Mo 07 Jul 2025 15:43:47 CEST

Set parameter LogFile to value "linear_model.log"
Gurobi Optimizer version 12.0.2 build v12.0.2rc0 (linux64 - "Ubuntu 22.04.5 LTS")

CPU model: Intel(R) Core(TM) i7-10510U CPU @ 1.80GHz, instruction set [SSE2|AVX|AVX2]
Thread count: 4 physical cores, 8 logical processors, using up to 4 threads

Non-default parameters:
TimeLimit  300
MIPGap  0
Method  2
Threads  4

Academic license 2623289 - for non-commercial use only - registered to ue___@student.kit.edu
Optimize a model with 789 rows, 4335 columns and 41162 nonzeros
Model fingerprint: 0x9e55d49d
Variable types: 0 continuous, 4335 integer (4335 binary)
Coefficient statistics:
  Matrix range     [1e+00, 2e+02]
  Objective range  [6e+01, 2e+02]
  Bounds range     [1e+00, 1e+00]
  RHS range        [1e+00, 2e+01]
Presolved: 688 rows, 3648 columns, 31136 nonzeros

Continuing optimization...


Explored 1 nodes (73 simplex iterations) in 0.01 seconds (0.01 work units)
Thread count was 8 (of 8 available processors)

Solution count 1: 57 

Optimal solution found (tolerance 0.00e+00)
Best objective 5.700000000000e+01, best bound 5.700000000000e+01, gap 0.0000%

Gurobi 12.0.2 (linux64) logging started Mo 07 Jul 2025 15:44:15 CEST

Set parameter LogFile to value "linear_model.log"
Gurobi Optimizer version 12.0.2 build v12.0.2rc0 (linux64 - "Ubuntu 22.04.5 LTS")

CPU model: Intel(R) Core(TM) i7-10510U CPU @ 1.80GHz, instruction set [SSE2|AVX|AVX2]
Thread count: 4 physical cores, 8 logical processors, using up to 4 threads

Non-default parameters:
TimeLimit  300
MIPGap  0
Method  2
Threads  4

Academic license 2623289 - for non-commercial use only - registered to ue___@student.kit.edu
Optimize a model with 789 rows, 4335 columns and 41162 nonzeros
Model fingerprint: 0x9e55d49d
Variable types: 0 continuous, 4335 integer (4335 binary)
Coefficient statistics:
  Matrix range     [1e+00, 2e+02]
  Objective range  [6e+01, 2e+02]
  Bounds range     [1e+00, 1e+00]
  RHS range        [1e+00, 2e+01]
Presolved: 688 rows, 3648 columns, 31136 nonzeros

Continuing optimization...


Explored 1 nodes (73 simplex iterations) in 0.01 seconds (0.01 work units)
Thread count was 8 (of 8 available processors)

Solution count 1: 57 

Optimal solution found (tolerance 0.00e+00)
Best objective 5.700000000000e+01, best bound 5.700000000000e+01, gap 0.0000%

Gurobi 12.0.2 (linux64) logging started Mo 07 Jul 2025 15:44:45 CEST

Set parameter LogFile to value "linear_model.log"
Gurobi Optimizer version 12.0.2 build v12.0.2rc0 (linux64 - "Ubuntu 22.04.5 LTS")

CPU model: Intel(R) Core(TM) i7-10510U CPU @ 1.80GHz, instruction set [SSE2|AVX|AVX2]
Thread count: 4 physical cores, 8 logical processors, using up to 4 threads

Non-default parameters:
TimeLimit  300
MIPGap  0
Method  2
Threads  4

Academic license 2623289 - for non-commercial use only - registered to ue___@student.kit.edu
Optimize a model with 40257 rows, 4992 columns and 109431 nonzeros
Model fingerprint: 0x52464a59
Variable types: 4000 continuous, 992 integer (992 binary)
Coefficient statistics:
  Matrix range     [1e+00, 2e+02]
  Objective range  [1e+00, 1e+00]
  Bounds range     [1e+00, 2e+02]
  RHS range        [1e+00, 2e+02]
Presolve removed 28523 rows and 4171 columns
Presolve time: 0.17s
Presolved: 11734 rows, 821 columns, 32078 nonzeros
Variable types: 259 continuous, 562 integer (562 binary)
Root relaxation presolved: 821 rows, 12551 columns, 32867 nonzeros

Root barrier log...

Ordering time: 0.03s

Barrier statistics:
 Free vars  : 62
 AA' NZ     : 2.152e+04
 Factor NZ  : 1.358e+05 (roughly 6 MB of memory)
 Factor Ops : 3.537e+07 (less than 1 second per iteration)
 Threads    : 3

                  Objective                Residual
Iter       Primal          Dual         Primal    Dual     Compl     Time
   0  -5.32137650e+04  1.18308429e+02  1.06e+01 2.04e+01  2.63e+01     0s
   1  -2.05716209e+04  1.31034386e+02  3.66e+00 3.21e+01  1.01e+01     0s
   2  -8.63440486e+03  1.35051122e+02  1.01e+00 2.48e+01  4.30e+00     0s
   3  -5.92236103e+03  1.29931353e+02  7.65e-03 6.08e+00  1.28e+00     0s
   4  -2.91484191e+03  6.62440671e+01  6.23e-04 1.62e+00  3.60e-01     0s
   5  -1.21907666e+03  5.91456749e+01  1.69e-04 7.74e-01  1.31e-01     0s
   6  -8.34993762e+02  5.70790891e+01  1.12e-04 2.84e-01  7.81e-02     0s
   7  -3.04025074e+02  5.70462447e+01  3.97e-05 5.79e-02  2.90e-02     0s
   8   2.81185574e+01  5.70284190e+01  1.36e-06 6.48e-03  2.27e-03     0s
   9   5.65212127e+01  5.70002898e+01  9.53e-09 4.49e-08  3.74e-05     0s
  10   5.69999995e+01  5.70000000e+01  9.60e-15 8.07e-10  3.77e-11     0s
  11   5.70000000e+01  5.70000000e+01  1.46e-15 5.68e-14  3.81e-17     0s

Barrier solved model in 11 iterations and 0.38 seconds (0.24 work units)
Optimal objective 5.70000000e+01


Root relaxation: objective 5.700000e+01, 675 iterations, 0.17 seconds (0.08 work units)

    Nodes    |    Current Node    |     Objective Bounds      |     Work
 Expl Unexpl |  Obj  Depth IntInf | Incumbent    BestBd   Gap | It/Node Time

*    0     0               0      57.0000000   57.00000  0.00%     -    0s

Explored 1 nodes (1328 simplex iterations) in 0.51 seconds (0.32 work units)
Thread count was 4 (of 8 available processors)

Solution count 1: 57 

Optimal solution found (tolerance 0.00e+00)
Best objective 5.700000000000e+01, best bound 5.700000000000e+01, gap 0.0000%

Gurobi 12.0.2 (linux64) logging started Mo 07 Jul 2025 16:08:31 CEST

Set parameter LogFile to value "linear_model.log"
Gurobi Optimizer version 12.0.2 build v12.0.2rc0 (linux64 - "Ubuntu 22.04.5 LTS")

CPU model: Intel(R) Core(TM) i7-10510U CPU @ 1.80GHz, instruction set [SSE2|AVX|AVX2]
Thread count: 4 physical cores, 8 logical processors, using up to 4 threads

Non-default parameters:
TimeLimit  300
MIPGap  0
Method  2
Threads  4

Academic license 2623289 - for non-commercial use only - registered to ue___@student.kit.edu
Optimize a model with 17972 rows, 931 columns and 129184 nonzeros
Model fingerprint: 0x7bf57295
Coefficient statistics:
  Matrix range     [1e+00, 2e+09]
  Objective range  [1e+00, 1e+00]
  Bounds range     [1e+00, 2e+02]
  RHS range        [1e+00, 2e+09]
Warning: Model contains large matrix coefficients
Warning: Model contains large rhs
         Consider reformulating model or setting NumericFocus parameter
         to avoid numerical issues.
Presolve removed 918 rows and 1 columns
Presolve time: 0.10s
Presolved: 930 rows, 18014 columns, 128471 nonzeros

Ordering time: 0.03s

Barrier statistics:
 AA' NZ     : 6.188e+04
 Factor NZ  : 2.269e+05 (roughly 10 MB of memory)
 Factor Ops : 6.854e+07 (less than 1 second per iteration)
 Threads    : 4

                  Objective                Residual
Iter       Primal          Dual         Primal    Dual     Compl     Time
   0  -1.23840183e+08  5.73072103e+01  4.41e+01 1.61e+05  6.28e+04     0s
   1  -8.45526173e+07  5.26726144e+03  2.67e+01 3.95e+05  3.91e+04     0s
   2  -7.06947564e+07  1.19646480e+03  2.13e+01 3.72e+05  3.36e+04     0s
   3  -1.13554133e+07  2.74134589e+03  6.71e-14 1.64e+05  1.84e+04     0s
   4  -2.68065219e+06  2.44076314e+02  7.87e-13 4.29e+03  6.02e+02     0s
   5  -5.90457090e+05  1.90177613e+02  1.59e-13 8.43e+02  1.16e+02     0s
   6  -3.43627132e+05  1.80173894e+02  7.88e-13 2.03e+02  3.45e+01     0s
   7  -1.99709762e+05  1.77664492e+02  4.14e-13 4.25e+01  1.28e+01     0s
   8  -6.97338053e+04  1.77057245e+02  1.23e-13 3.92e+00  3.78e+00     0s
   9  -8.94454321e+02  1.76993675e+02  1.25e-14 2.33e-09  5.66e-02     0s
  10  -1.88760556e+02  1.76978101e+02  4.30e-15 2.33e-09  1.93e-02     0s
  11  -1.50520602e+02  1.72013776e+02  3.60e-15 1.40e-09  1.71e-02     0s
  12  -7.51861510e+01  1.48957094e+02  2.45e-15 1.86e-09  1.19e-02     0s
  13  -6.74987309e+01  6.34863060e+01  1.73e-15 1.40e-09  6.92e-03     0s
  14  -3.63849526e+01  2.58115569e+01  4.42e-15 2.33e-09  3.29e-03     0s
  15  -1.81743449e+01  1.32913229e+01  2.39e-14 1.40e-09  1.66e-03     0s
  16  -1.01381469e+01  6.38054141e+00  6.50e-14 1.40e-09  8.73e-04     0s
  17  -6.13938799e+00  3.29195818e+00  3.58e-14 4.66e-10  4.99e-04     0s
  18  -3.08999423e+00  1.84940682e+00  8.75e-14 9.31e-10  2.61e-04     0s
  19  -1.51764762e+00  9.82341105e-01  6.49e-13 9.31e-10  1.32e-04     0s
  20  -6.99602001e-01  3.76328245e-01  1.74e-13 1.86e-09  5.69e-05     0s
  21  -3.58647074e-01  1.83547271e-01  3.48e-13 9.31e-10  2.87e-05     0s
  22  -2.50230050e-01  1.30788815e-01  5.37e-13 1.86e-09  2.01e-05     0s
  23  -7.88749707e-02  9.33357034e-02  5.36e-13 1.86e-09  9.10e-06     0s
  24  -6.18573139e-02  8.89654665e-02  5.15e-13 1.86e-09  7.97e-06     0s
  25  -3.62909059e-02  8.35738712e-02  4.61e-13 9.31e-10  6.34e-06     0s
  26   2.51201857e-02  7.16655266e-02  1.04e-13 2.79e-09  2.46e-06     0s
  27   5.16059493e-02  7.00428602e-02  1.85e-13 9.31e-10  9.75e-07     0s
  28   6.72199311e-02  6.97135439e-02  1.27e-13 1.86e-09  1.32e-07     0s
  29   6.96588483e-02  6.97000129e-02  3.96e-13 2.79e-09  2.18e-09     0s
  30   6.96833301e-02  6.96962031e-02  9.06e-14 9.31e-10  6.81e-10     0s
  31   6.96882543e-02  6.96930975e-02  2.40e-14 9.31e-10  2.56e-10     0s
  32   6.96895274e-02  6.96923863e-02  1.53e-14 1.86e-09  1.51e-10     0s
  33   6.96904549e-02  6.96920447e-02  9.46e-15 1.86e-09  8.40e-11     0s
  34   6.96908779e-02  6.96917389e-02  5.86e-15 1.40e-09  4.55e-11     0s
  35   6.96912269e-02  6.96915821e-02  2.20e-15 1.86e-09  1.88e-11     0s
  36   6.96913381e-02  6.96915444e-02  1.17e-15 1.86e-09  1.09e-11     0s
  37   6.96914227e-02  6.96914884e-02  4.05e-15 2.79e-09  3.48e-12     1s
  38   6.96914400e-02  6.96914682e-02  2.38e-14 9.31e-10  1.49e-12     1s
  39   6.96914449e-02  6.96914594e-02  3.44e-15 9.31e-10  7.66e-13     1s
  40   6.96914471e-02  6.96914573e-02  1.69e-14 2.79e-09  5.41e-13     1s

Barrier solved model in 40 iterations and 0.53 seconds (0.34 work units)
Optimal objective 6.96914471e-02

Crossover log...

     892 DPushes remaining with DInf 0.0000000e+00                 1s
       0 DPushes remaining with DInf 0.0000000e+00                 1s

     135 PPushes remaining with PInf 0.0000000e+00                 1s
       0 PPushes remaining with PInf 6.3578288e-06                 1s

  Push phase complete: Pinf 6.3578288e-06, Dinf 1.0266831e+06      1s

Iteration    Objective       Primal Inf.    Dual Inf.      Time
     389    2.7474016e-07   0.000000e+00   1.026683e+06      1s
Extra simplex iterations from dual to original model: 335
    1789    6.9692738e-02   0.000000e+00   0.000000e+00      1s

Solved in 1789 iterations and 0.86 seconds (0.64 work units)
Optimal objective  6.969273816e-02
